out/bwp_7_9_1_lp.out
6
4 -0    6 1
-0 1    1 3
2 1    3 3
4 2    6 3
-0 4    2 5
3 4    5 5
-0 -0    0 0
6 4    6 4
6 5    6 5
